Er12 Al8 Ga12 O48                       
   1.00000000000000     
     9.9700039999999994    0.0000000000000000   -3.5249290000000002
    -4.9850019999999997    8.6342759999999998   -3.5249290000000002
     0.0000000000000000    0.0000000000000000   10.5747859999999996
   Er   Al   Ga   O 
    12     8    12    48
Direct
  0.2500000000000000  0.8750000000000000  0.6250000000000000
  0.8750000000000000  0.6250000000000000  0.2500000000000000
  0.6250000000000000  0.8750000000000000  0.7500000000000000
  0.8750000000000000  0.7500000000000000  0.6250000000000000
  0.6250000000000000  0.2500000000000000  0.8750000000000000
  0.7500000000000000  0.6250000000000000  0.8750000000000000
  0.7500000000000000  0.1250000000000000  0.3750000000000000
  0.1250000000000000  0.3750000000000000  0.7500000000000000
  0.3750000000000000  0.1250000000000000  0.2500000000000000
  0.1250000000000000  0.2500000000000000  0.3750000000000000
  0.3750000000000000  0.7500000000000000  0.1250000000000000
  0.2500000000000000  0.3750000000000000  0.1250000000000000
  0.5000000000000000  0.5000000000000000  0.5000000000000000
  0.5000000000000000  0.5000000000000000  0.0000000000000000
  0.5000000000000000  0.0000000000000000  0.5000000000000000
  0.0000000000000000  0.5000000000000000  0.5000000000000000
  0.5000000000000000  0.0000000000000000  0.0000000000000000
  0.0000000000000000  0.0000000000000000  0.5000000000000000
  0.0000000000000000  0.5000000000000000  0.0000000000000000
  0.0000000000000000  0.0000000000000000  0.0000000000000000
  0.2500000000000000  0.1250000000000000  0.8750000000000000
  0.7500000000000000  0.8750000000000000  0.1250000000000000
  0.3750000000000000  0.2500000000000000  0.6250000000000000
  0.6250000000000000  0.3750000000000000  0.2500000000000000
  0.1250000000000000  0.7500000000000000  0.8750000000000000
  0.8750000000000000  0.1250000000000000  0.7500000000000000
  0.7500000000000000  0.3750000000000000  0.6250000000000000
  0.3750000000000000  0.6250000000000000  0.7500000000000000
  0.1250000000000000  0.8750000000000000  0.2500000000000000
  0.8750000000000000  0.2500000000000000  0.1250000000000000
  0.6250000000000000  0.7500000000000000  0.3750000000000000
  0.2500000000000000  0.6250000000000000  0.3750000000000000
  0.7006620000000012  0.6735120000000023  0.0785545315789867
  0.8264879999999977  0.5271510000000035  0.4064600000000027
  0.4200269999999975  0.0935399999999973  0.6206900000000033
  0.7993379999999988  0.8793099999999967  0.9728489999999965
  0.7993379999999988  0.4200269999999975  0.8264879999999977
  0.8793099999999967  0.9728489999999965  0.7993379999999988
  0.0935399999999973  0.9728489999999965  0.6735120000000023
  0.9728489999999965  0.7993379999999988  0.8793099999999967
  0.4064600000000027  0.0799730000000025  0.8793099999999967
  0.5271510000000035  0.6206900000000033  0.7006620000000012
  0.6206900000000033  0.7006620000000012  0.5271510000000035
  0.8264879999999977  0.7993379999999988  0.4200269999999975
  0.9728489999999965  0.6735120000000023  0.0935399999999973
  0.8793099999999967  0.4064600000000027  0.0799730000000025
  0.4200269999999975  0.8264879999999977  0.7993379999999988
  0.6735120000000023  0.0935399999999973  0.9728489999999965
  0.0799730000000025  0.8793099999999967  0.4064600000000027
  0.4064600000000027  0.8264879999999977  0.5271510000000035
  0.0935399999999973  0.6206900000000033  0.4200269999999975
  0.5935399999999973  0.9200269999999975  0.1206900000000033
  0.6206900000000033  0.4200269999999975  0.0935399999999973
  0.0799730000000025  0.7006620000000012  0.6735120000000023
  0.5271510000000035  0.4064600000000027  0.8264879999999977
  0.7006620000000012  0.5271510000000035  0.6206900000000033
  0.2993379999999988  0.3264879999999977  0.9200269999999975
  0.1735120000000023  0.4728489999999965  0.5935399999999973
  0.5799730000000025  0.9064600000000027  0.3793099999999967
  0.2006620000000012  0.1206900000000033  0.0271510000000035
  0.2006620000000012  0.5799730000000025  0.1735120000000023
  0.1206900000000033  0.0271510000000035  0.2006620000000012
  0.9064600000000027  0.0271510000000035  0.3264879999999977
  0.0271510000000035  0.2006620000000012  0.1206900000000033
  0.2993379999999988  0.4728489999999965  0.3793099999999967
  0.4728489999999965  0.5935399999999973  0.1735120000000023
  0.9200269999999975  0.2993379999999988  0.3264879999999977
  0.3264879999999977  0.9200269999999975  0.2993379999999988
  0.3793099999999967  0.5799730000000025  0.9064600000000027
  0.9064600000000027  0.3793099999999967  0.5799730000000025
  0.5935399999999973  0.1735120000000023  0.4728489999999965
  0.9200269999999975  0.1206900000000033  0.5935399999999973
  0.3264879999999977  0.9064600000000027  0.0271510000000035
  0.5799730000000025  0.1735120000000023  0.2006620000000012
  0.1206900000000033  0.5935399999999973  0.9200269999999975
  0.0271510000000035  0.3264879999999977  0.9064600000000027
  0.1735120000000023  0.2006620000000012  0.5799730000000025
  0.3793099999999967  0.2993379999999988  0.4728489999999965
  0.4728489999999965  0.3793099999999967  0.2993379999999988
  0.6735120000000023  0.0799730000000025  0.7006620000000012
 
  0.00000000E+00  0.00000000E+00  0.00000000E+00
  0.00000000E+00  0.00000000E+00  0.00000000E+00
  0.00000000E+00  0.00000000E+00  0.00000000E+00
  0.00000000E+00  0.00000000E+00  0.00000000E+00
  0.00000000E+00  0.00000000E+00  0.00000000E+00
  0.00000000E+00  0.00000000E+00  0.00000000E+00
  0.00000000E+00  0.00000000E+00  0.00000000E+00
  0.00000000E+00  0.00000000E+00  0.00000000E+00
  0.00000000E+00  0.00000000E+00  0.00000000E+00
  0.00000000E+00  0.00000000E+00  0.00000000E+00
  0.00000000E+00  0.00000000E+00  0.00000000E+00
  0.00000000E+00  0.00000000E+00  0.00000000E+00
  0.00000000E+00  0.00000000E+00  0.00000000E+00
  0.00000000E+00  0.00000000E+00  0.00000000E+00
  0.00000000E+00  0.00000000E+00  0.00000000E+00
  0.00000000E+00  0.00000000E+00  0.00000000E+00
  0.00000000E+00  0.00000000E+00  0.00000000E+00
  0.00000000E+00  0.00000000E+00  0.00000000E+00
  0.00000000E+00  0.00000000E+00  0.00000000E+00
  0.00000000E+00  0.00000000E+00  0.00000000E+00
  0.00000000E+00  0.00000000E+00  0.00000000E+00
  0.00000000E+00  0.00000000E+00  0.00000000E+00
  0.00000000E+00  0.00000000E+00  0.00000000E+00
  0.00000000E+00  0.00000000E+00  0.00000000E+00
  0.00000000E+00  0.00000000E+00  0.00000000E+00
  0.00000000E+00  0.00000000E+00  0.00000000E+00
  0.00000000E+00  0.00000000E+00  0.00000000E+00
  0.00000000E+00  0.00000000E+00  0.00000000E+00
  0.00000000E+00  0.00000000E+00  0.00000000E+00
  0.00000000E+00  0.00000000E+00  0.00000000E+00
  0.00000000E+00  0.00000000E+00  0.00000000E+00
  0.00000000E+00  0.00000000E+00  0.00000000E+00
  0.00000000E+00  0.00000000E+00  0.00000000E+00
  0.00000000E+00  0.00000000E+00  0.00000000E+00
  0.00000000E+00  0.00000000E+00  0.00000000E+00
  0.00000000E+00  0.00000000E+00  0.00000000E+00
  0.00000000E+00  0.00000000E+00  0.00000000E+00
  0.00000000E+00  0.00000000E+00  0.00000000E+00
  0.00000000E+00  0.00000000E+00  0.00000000E+00
  0.00000000E+00  0.00000000E+00  0.00000000E+00
  0.00000000E+00  0.00000000E+00  0.00000000E+00
  0.00000000E+00  0.00000000E+00  0.00000000E+00
  0.00000000E+00  0.00000000E+00  0.00000000E+00
  0.00000000E+00  0.00000000E+00  0.00000000E+00
  0.00000000E+00  0.00000000E+00  0.00000000E+00
  0.00000000E+00  0.00000000E+00  0.00000000E+00
  0.00000000E+00  0.00000000E+00  0.00000000E+00
  0.00000000E+00  0.00000000E+00  0.00000000E+00
  0.00000000E+00  0.00000000E+00  0.00000000E+00
  0.00000000E+00  0.00000000E+00  0.00000000E+00
  0.00000000E+00  0.00000000E+00  0.00000000E+00
  0.00000000E+00  0.00000000E+00  0.00000000E+00
  0.00000000E+00  0.00000000E+00  0.00000000E+00
  0.00000000E+00  0.00000000E+00  0.00000000E+00
  0.00000000E+00  0.00000000E+00  0.00000000E+00
  0.00000000E+00  0.00000000E+00  0.00000000E+00
  0.00000000E+00  0.00000000E+00  0.00000000E+00
  0.00000000E+00  0.00000000E+00  0.00000000E+00
  0.00000000E+00  0.00000000E+00  0.00000000E+00
  0.00000000E+00  0.00000000E+00  0.00000000E+00
  0.00000000E+00  0.00000000E+00  0.00000000E+00
  0.00000000E+00  0.00000000E+00  0.00000000E+00
  0.00000000E+00  0.00000000E+00  0.00000000E+00
  0.00000000E+00  0.00000000E+00  0.00000000E+00
  0.00000000E+00  0.00000000E+00  0.00000000E+00
  0.00000000E+00  0.00000000E+00  0.00000000E+00
  0.00000000E+00  0.00000000E+00  0.00000000E+00
  0.00000000E+00  0.00000000E+00  0.00000000E+00
  0.00000000E+00  0.00000000E+00  0.00000000E+00
  0.00000000E+00  0.00000000E+00  0.00000000E+00
  0.00000000E+00  0.00000000E+00  0.00000000E+00
  0.00000000E+00  0.00000000E+00  0.00000000E+00
  0.00000000E+00  0.00000000E+00  0.00000000E+00
  0.00000000E+00  0.00000000E+00  0.00000000E+00
  0.00000000E+00  0.00000000E+00  0.00000000E+00
  0.00000000E+00  0.00000000E+00  0.00000000E+00
  0.00000000E+00  0.00000000E+00  0.00000000E+00
  0.00000000E+00  0.00000000E+00  0.00000000E+00
  0.00000000E+00  0.00000000E+00  0.00000000E+00
  0.00000000E+00  0.00000000E+00  0.00000000E+00
