ALGO = Fast
EDIFF = 1e-06
ENCUT = 520
IBRION = 6
ICHARG = 1
ISIF = 3
ISMEAR = 0
ISPIN = 2
LCHARG = False
LORBIT = 11
LREAL = Auto
LWAVE = False
MAGMOM = 80*0.6
NELM = 100
NFREE = 2
NSW = 1
POTIM = 0.015
PREC = Accurate
SIGMA = 0.05
