Er12 Al8 Ga12 O48
1.0
9.970004 0.000000 -3.524929
-4.985002 8.634276 -3.524929
0.000000 0.000000 10.574786
Er Al Ga O
12 8 12 48
direct
0.250000 0.875000 0.625000 Er
0.875000 0.625000 0.250000 Er
0.625000 0.875000 0.750000 Er
0.875000 0.750000 0.625000 Er
0.625000 0.250000 0.875000 Er
0.750000 0.625000 0.875000 Er
0.750000 0.125000 0.375000 Er
0.125000 0.375000 0.750000 Er
0.375000 0.125000 0.250000 Er
0.125000 0.250000 0.375000 Er
0.375000 0.750000 0.125000 Er
0.250000 0.375000 0.125000 Er
0.500000 0.500000 0.500000 Al
0.500000 0.500000 0.000000 Al
0.500000 -0.000000 0.500000 Al
0.000000 0.500000 0.500000 Al
0.500000 -0.000000 0.000000 Al
0.000000 -0.000000 0.500000 Al
0.000000 0.500000 0.000000 Al
0.000000 -0.000000 0.000000 Al
0.250000 0.125000 0.875000 Ga
0.750000 0.875000 0.125000 Ga
0.375000 0.250000 0.625000 Ga
0.625000 0.375000 0.250000 Ga
0.125000 0.750000 0.875000 Ga
0.875000 0.125000 0.750000 Ga
0.750000 0.375000 0.625000 Ga
0.375000 0.625000 0.750000 Ga
0.125000 0.875000 0.250000 Ga
0.875000 0.250000 0.125000 Ga
0.625000 0.750000 0.375000 Ga
0.250000 0.625000 0.375000 Ga
0.700662 0.673512 0.079973 O
0.826488 0.527151 0.406460 O
0.420027 0.093540 0.620690 O
0.799338 0.879310 0.972849 O
0.799338 0.420027 0.826488 O
0.879310 0.972849 0.799338 O
0.093540 0.972849 0.673512 O
0.972849 0.799338 0.879310 O
0.406460 0.079973 0.879310 O
0.527151 0.620690 0.700662 O
0.620690 0.700662 0.527151 O
0.826488 0.799338 0.420027 O
0.972849 0.673512 0.093540 O
0.879310 0.406460 0.079973 O
0.420027 0.826488 0.799338 O
0.673512 0.093540 0.972849 O
0.079973 0.879310 0.406460 O
0.406460 0.826488 0.527151 O
0.093540 0.620690 0.420027 O
0.593540 0.920027 0.120690 O
0.620690 0.420027 0.093540 O
0.079973 0.700662 0.673512 O
0.527151 0.406460 0.826488 O
0.700662 0.527151 0.620690 O
0.299338 0.326488 0.920027 O
0.173512 0.472849 0.593540 O
0.579973 0.906460 0.379310 O
0.200662 0.120690 0.027151 O
0.200662 0.579973 0.173512 O
0.120690 0.027151 0.200662 O
0.906460 0.027151 0.326488 O
0.027151 0.200662 0.120690 O
0.299338 0.472849 0.379310 O
0.472849 0.593540 0.173512 O
0.920027 0.299338 0.326488 O
0.326488 0.920027 0.299338 O
0.379310 0.579973 0.906460 O
0.906460 0.379310 0.579973 O
0.593540 0.173512 0.472849 O
0.920027 0.120690 0.593540 O
0.326488 0.906460 0.027151 O
0.579973 0.173512 0.200662 O
0.120690 0.593540 0.920027 O
0.027151 0.326488 0.906460 O
0.173512 0.200662 0.579973 O
0.379310 0.299338 0.472849 O
0.472849 0.379310 0.299338 O
0.673512 0.079973 0.700662 O
