Er12 Al8 Ga12 O48                       
   1.00000000000000     
     9.9667949999999994    0.0000000000000000   -3.5237940000000001
    -4.9833970000000001    8.6314969999999995   -3.5237940000000001
     0.0000000000000000    0.0000000000000000   10.5713819999999998
   Er   Al   Ga   O 
    12     8    12    48
Direct
  0.2500000000000000  0.8750000000000000  0.6250000000000000
  0.8750000000000000  0.6250000000000000  0.2500000000000000
  0.6250000000000000  0.8750000000000000  0.7500000000000000
  0.8750000000000000  0.7500000000000000  0.6250000000000000
  0.6250000000000000  0.2500000000000000  0.8750000000000000
  0.7500000000000000  0.6250000000000000  0.8750000000000000
  0.7500000000000000  0.1250000000000000  0.3750000000000000
  0.1250000000000000  0.3750000000000000  0.7500000000000000
  0.3750000000000000  0.1250000000000000  0.2500000000000000
  0.1250000000000000  0.2500000000000000  0.3750000000000000
  0.3750000000000000  0.7500000000000000  0.1250000000000000
  0.2500000000000000  0.3750000000000000  0.1250000000000000
  0.5000000000000000  0.5000000000000000  0.5000000000000000
  0.5000000000000000  0.5000000000000000  0.0000000000000000
  0.5000000000000000  0.0000000000000000  0.5000000000000000
  0.0000000000000000  0.5000000000000000  0.5000000000000000
  0.5000000000000000  0.0000000000000000  0.0000000000000000
  0.0000000000000000  0.0000000000000000  0.5000000000000000
  0.0000000000000000  0.5000000000000000  0.0000000000000000
  0.0000000000000000  0.0000000000000000  0.0000000000000000
  0.2500000000000000  0.1250000000000000  0.8750000000000000
  0.7500000000000000  0.8750000000000000  0.1250000000000000
  0.3750000000000000  0.2500000000000000  0.6250000000000000
  0.6250000000000000  0.3750000000000000  0.2500000000000000
  0.1250000000000000  0.7500000000000000  0.8750000000000000
  0.8750000000000000  0.1250000000000000  0.7500000000000000
  0.7500000000000000  0.3750000000000000  0.6250000000000000
  0.3750000000000000  0.6250000000000000  0.7500000000000000
  0.1250000000000000  0.8750000000000000  0.2500000000000000
  0.8750000000000000  0.2500000000000000  0.1250000000000000
  0.6250000000000000  0.7500000000000000  0.3750000000000000
  0.2500000000000000  0.6250000000000000  0.3750000000000000
  0.7005029999999977  0.6735270000000000  0.0795109999999966
  0.8264730000000000  0.5269759999999977  0.4059829999999991
  0.4204890000000034  0.0940170000000009  0.6209920000000011
  0.7994970000000023  0.8790079999999989  0.9730240000000023
  0.7994970000000023  0.4204890000000034  0.8264730000000000
  0.8790079999999989  0.9730240000000023  0.7994970000000023
  0.0940170000000009  0.9730240000000023  0.6735270000000000
  0.9730240000000023  0.7994970000000023  0.8790079999999989
  0.4059829999999991  0.0795109999999966  0.8790079999999989
  0.5269759999999977  0.6209920000000011  0.7005029999999977
  0.6209920000000011  0.7005029999999977  0.5269759999999977
  0.8264730000000000  0.7994970000000023  0.4204890000000034
  0.9730240000000023  0.6735270000000000  0.0940170000000009
  0.8790079999999989  0.4059829999999991  0.0795109999999966
  0.4204890000000034  0.8264730000000000  0.7994970000000023
  0.6735270000000000  0.0940170000000009  0.9730240000000023
  0.0795109999999966  0.8790079999999989  0.4059829999999991
  0.4059829999999991  0.8264730000000000  0.5269759999999977
  0.0940170000000009  0.6209920000000011  0.4204890000000034
  0.5940170000000009  0.9204890000000034  0.1209920000000011
  0.6209920000000011  0.4204890000000034  0.0940170000000009
  0.0795109999999966  0.7005029999999977  0.6735270000000000
  0.5269759999999977  0.4059829999999991  0.8264730000000000
  0.7005029999999977  0.5269759999999977  0.6209920000000011
  0.2994970000000023  0.3264730000000000  0.9204890000000034
  0.1735270000000000  0.4730240000000023  0.5940170000000009
  0.5795109999999966  0.9059829999999991  0.3790079999999989
  0.2005029999999977  0.1209920000000011  0.0269759999999977
  0.2005029999999977  0.5795109999999966  0.1735270000000000
  0.1209920000000011  0.0269759999999977  0.2005029999999977
  0.9059829999999991  0.0269759999999977  0.3264730000000000
  0.0269759999999977  0.2005029999999977  0.1209920000000011
  0.2994970000000023  0.4730240000000023  0.3790079999999989
  0.4730240000000023  0.5940170000000009  0.1735270000000000
  0.9204890000000034  0.2994970000000023  0.3264730000000000
  0.3264730000000000  0.9204890000000034  0.2994970000000023
  0.3790079999999989  0.5795109999999966  0.9059829999999991
  0.9059829999999991  0.3790079999999989  0.5795109999999966
  0.5940170000000009  0.1735270000000000  0.4730240000000023
  0.9204890000000034  0.1209920000000011  0.5940170000000009
  0.3264730000000000  0.9059829999999991  0.0269759999999977
  0.5795109999999966  0.1735270000000000  0.2005029999999977
  0.1209920000000011  0.5940170000000009  0.9204890000000034
  0.0269759999999977  0.3264730000000000  0.9059829999999991
  0.1735270000000000  0.2005029999999977  0.5795109999999966
  0.3790079999999989  0.2994970000000023  0.4730240000000023
  0.4730240000000023  0.3790079999999989  0.2994970000000023
  0.6735270000000000  0.0795109999999966  0.7005029999999977
 
  0.00000000E+00  0.00000000E+00  0.00000000E+00
  0.00000000E+00  0.00000000E+00  0.00000000E+00
  0.00000000E+00  0.00000000E+00  0.00000000E+00
  0.00000000E+00  0.00000000E+00  0.00000000E+00
  0.00000000E+00  0.00000000E+00  0.00000000E+00
  0.00000000E+00  0.00000000E+00  0.00000000E+00
  0.00000000E+00  0.00000000E+00  0.00000000E+00
  0.00000000E+00  0.00000000E+00  0.00000000E+00
  0.00000000E+00  0.00000000E+00  0.00000000E+00
  0.00000000E+00  0.00000000E+00  0.00000000E+00
  0.00000000E+00  0.00000000E+00  0.00000000E+00
  0.00000000E+00  0.00000000E+00  0.00000000E+00
  0.00000000E+00  0.00000000E+00  0.00000000E+00
  0.00000000E+00  0.00000000E+00  0.00000000E+00
  0.00000000E+00  0.00000000E+00  0.00000000E+00
  0.00000000E+00  0.00000000E+00  0.00000000E+00
  0.00000000E+00  0.00000000E+00  0.00000000E+00
  0.00000000E+00  0.00000000E+00  0.00000000E+00
  0.00000000E+00  0.00000000E+00  0.00000000E+00
  0.00000000E+00  0.00000000E+00  0.00000000E+00
  0.00000000E+00  0.00000000E+00  0.00000000E+00
  0.00000000E+00  0.00000000E+00  0.00000000E+00
  0.00000000E+00  0.00000000E+00  0.00000000E+00
  0.00000000E+00  0.00000000E+00  0.00000000E+00
  0.00000000E+00  0.00000000E+00  0.00000000E+00
  0.00000000E+00  0.00000000E+00  0.00000000E+00
  0.00000000E+00  0.00000000E+00  0.00000000E+00
  0.00000000E+00  0.00000000E+00  0.00000000E+00
  0.00000000E+00  0.00000000E+00  0.00000000E+00
  0.00000000E+00  0.00000000E+00  0.00000000E+00
  0.00000000E+00  0.00000000E+00  0.00000000E+00
  0.00000000E+00  0.00000000E+00  0.00000000E+00
  0.00000000E+00  0.00000000E+00  0.00000000E+00
  0.00000000E+00  0.00000000E+00  0.00000000E+00
  0.00000000E+00  0.00000000E+00  0.00000000E+00
  0.00000000E+00  0.00000000E+00  0.00000000E+00
  0.00000000E+00  0.00000000E+00  0.00000000E+00
  0.00000000E+00  0.00000000E+00  0.00000000E+00
  0.00000000E+00  0.00000000E+00  0.00000000E+00
  0.00000000E+00  0.00000000E+00  0.00000000E+00
  0.00000000E+00  0.00000000E+00  0.00000000E+00
  0.00000000E+00  0.00000000E+00  0.00000000E+00
  0.00000000E+00  0.00000000E+00  0.00000000E+00
  0.00000000E+00  0.00000000E+00  0.00000000E+00
  0.00000000E+00  0.00000000E+00  0.00000000E+00
  0.00000000E+00  0.00000000E+00  0.00000000E+00
  0.00000000E+00  0.00000000E+00  0.00000000E+00
  0.00000000E+00  0.00000000E+00  0.00000000E+00
  0.00000000E+00  0.00000000E+00  0.00000000E+00
  0.00000000E+00  0.00000000E+00  0.00000000E+00
  0.00000000E+00  0.00000000E+00  0.00000000E+00
  0.00000000E+00  0.00000000E+00  0.00000000E+00
  0.00000000E+00  0.00000000E+00  0.00000000E+00
  0.00000000E+00  0.00000000E+00  0.00000000E+00
  0.00000000E+00  0.00000000E+00  0.00000000E+00
  0.00000000E+00  0.00000000E+00  0.00000000E+00
  0.00000000E+00  0.00000000E+00  0.00000000E+00
  0.00000000E+00  0.00000000E+00  0.00000000E+00
  0.00000000E+00  0.00000000E+00  0.00000000E+00
  0.00000000E+00  0.00000000E+00  0.00000000E+00
  0.00000000E+00  0.00000000E+00  0.00000000E+00
  0.00000000E+00  0.00000000E+00  0.00000000E+00
  0.00000000E+00  0.00000000E+00  0.00000000E+00
  0.00000000E+00  0.00000000E+00  0.00000000E+00
  0.00000000E+00  0.00000000E+00  0.00000000E+00
  0.00000000E+00  0.00000000E+00  0.00000000E+00
  0.00000000E+00  0.00000000E+00  0.00000000E+00
  0.00000000E+00  0.00000000E+00  0.00000000E+00
  0.00000000E+00  0.00000000E+00  0.00000000E+00
  0.00000000E+00  0.00000000E+00  0.00000000E+00
  0.00000000E+00  0.00000000E+00  0.00000000E+00
  0.00000000E+00  0.00000000E+00  0.00000000E+00
  0.00000000E+00  0.00000000E+00  0.00000000E+00
  0.00000000E+00  0.00000000E+00  0.00000000E+00
  0.00000000E+00  0.00000000E+00  0.00000000E+00
  0.00000000E+00  0.00000000E+00  0.00000000E+00
  0.00000000E+00  0.00000000E+00  0.00000000E+00
  0.00000000E+00  0.00000000E+00  0.00000000E+00
  0.00000000E+00  0.00000000E+00  0.00000000E+00
  0.00000000E+00  0.00000000E+00  0.00000000E+00
