Non SCF run along symmetry lines
57
Reciprocal
0.0 0.0 0.0 1 \Gamma
0.0454545454545 -0.0454545454545 0.0454545454545 1 
0.0909090909091 -0.0909090909091 0.0909090909091 1 
0.136363636364 -0.136363636364 0.136363636364 1 
0.181818181818 -0.181818181818 0.181818181818 1 
0.227272727273 -0.227272727273 0.227272727273 1 
0.272727272727 -0.272727272727 0.272727272727 1 
0.318181818182 -0.318181818182 0.318181818182 1 
0.363636363636 -0.363636363636 0.363636363636 1 
0.409090909091 -0.409090909091 0.409090909091 1 
0.454545454545 -0.454545454545 0.454545454545 1 
0.5 -0.5 0.5 1 H
0.5 -0.5 0.5 1 H
0.4375 -0.4375 0.5 1 
0.375 -0.375 0.5 1 
0.3125 -0.3125 0.5 1 
0.25 -0.25 0.5 1 
0.1875 -0.1875 0.5 1 
0.125 -0.125 0.5 1 
0.0625 -0.0625 0.5 1 
-1.04201527411e-17 1.04201527411e-17 0.5 1 N
-1.04201527411e-17 1.04201527411e-17 0.5 1 N
-1.23885222943e-17 1.23885222943e-17 0.4375 1 
-1.43568918475e-17 1.43568918475e-17 0.375 1 
1.06360809905e-17 -1.06360809905e-17 0.3125 1 
-5.21007637055e-18 5.21007637055e-18 0.25 1 
-7.17844592375e-18 7.17844592375e-18 0.1875 1 
1.08756330103e-17 -1.08756330103e-17 0.125 1 
5.43781650515e-18 -5.43781650515e-18 0.0625 1 
0.0 0.0 0.0 1 \Gamma
0.0 0.0 0.0 1 \Gamma
0.0277777777778 0.0277777777778 0.0277777777778 1 
0.0555555555556 0.0555555555556 0.0555555555556 1 
0.0833333333333 0.0833333333333 0.0833333333333 1 
0.111111111111 0.111111111111 0.111111111111 1 
0.138888888889 0.138888888889 0.138888888889 1 
0.166666666667 0.166666666667 0.166666666667 1 
0.194444444444 0.194444444444 0.194444444444 1 
0.222222222222 0.222222222222 0.222222222222 1 
0.25 0.25 0.25 1 P
0.25 0.25 0.25 1 P
0.277777777778 0.166666666667 0.277777777778 1 
0.305555555556 0.0833333333333 0.305555555556 1 
0.333333333333 9.40779771896e-18 0.333333333333 1 
0.361111111111 -0.0833333333333 0.361111111111 1 
0.388888888889 -0.166666666667 0.388888888889 1 
0.416666666667 -0.25 0.416666666667 1 
0.444444444444 -0.333333333333 0.444444444444 1 
0.472222222222 -0.416666666667 0.472222222222 1 
0.5 -0.5 0.5 1 H
0.25 0.25 0.25 1 P
0.208333333333 0.208333333333 0.291666666667 1 
0.166666666667 0.166666666667 0.333333333333 1 
0.125 0.125 0.375 1 
0.0833333333333 0.0833333333333 0.416666666667 1 
0.0416666666667 0.0416666666667 0.458333333333 1 
-1.04201527411e-17 1.04201527411e-17 0.5 1 N
