Er12 Al8 Ga12 O48                       
   1.00000000000000     
     9.9700041888710196    0.0000000001851749   -3.5249286194468574
    -4.9850015941141494    8.6342762383552252   -3.5249286194468574
     0.0000000000000000    0.0000000000000000   10.5747858583405705
   Er   Al   Ga   O 
    12     8    12    48
Direct
  0.2500000000000000  0.8750000000000000  0.6250000000000000
  0.8750000000000000  0.6250000000000000  0.2500000000000000
  0.6250000000000000  0.8750000000000000  0.7500000000000000
  0.8750000000000000  0.7500000000000000  0.6250000000000000
  0.6250000000000000  0.2500000000000000  0.8750000000000000
  0.7500000000000000  0.6250000000000000  0.8750000000000000
  0.7500000000000000  0.1250000000000000  0.3750000000000000
  0.1250000000000000  0.3750000000000000  0.7500000000000000
  0.3750000000000000  0.1250000000000000  0.2500000000000000
  0.1250000000000000  0.2500000000000000  0.3750000000000000
  0.3750000000000000  0.7500000000000000  0.1250000000000000
  0.2500000000000000  0.3750000000000000  0.1250000000000000
  0.5000000000000000  0.5000000000000000  0.5000000000000000
  0.5000000000000000  0.5000000000000000  0.0000000000000000
  0.5000000000000000 -0.0000000000000000  0.5000000000000000
  0.0000000000000000  0.5000000000000000  0.5000000000000000
  0.5000000000000000 -0.0000000000000000  0.0000000000000000
  0.0000000000000000 -0.0000000000000000  0.5000000000000000
  0.0000000000000000  0.5000000000000000  0.0000000000000000
  0.0000000000000000 -0.0000000000000000  0.0000000000000000
  0.2500000000000000  0.1250000000000000  0.8750000000000000
  0.7500000000000000  0.8750000000000000  0.1250000000000000
  0.3750000000000000  0.2500000000000000  0.6250000000000000
  0.6250000000000000  0.3750000000000000  0.2500000000000000
  0.1250000000000000  0.7500000000000000  0.8750000000000000
  0.8750000000000000  0.1250000000000000  0.7500000000000000
  0.7500000000000000  0.3750000000000000  0.6250000000000000
  0.3750000000000000  0.6250000000000000  0.7500000000000000
  0.1250000000000000  0.8750000000000000  0.2500000000000000
  0.8750000000000000  0.2500000000000000  0.1250000000000000
  0.6250000000000000  0.7500000000000000  0.3750000000000000
  0.2500000000000000  0.6250000000000000  0.3750000000000000
  0.7006624242298884  0.6735117443645630  0.0799728775938414
  0.8264882556354449  0.5271506798653267  0.4064601332292838
  0.4200271224061554  0.0935398667707233  0.6206895466360475
  0.7993375757701097  0.8793104533639449  0.9728493201346682
  0.7993375757701170  0.4200271224061684  0.8264882556354449
  0.8793104533639653  0.9728493201346821  0.7993375757701210
  0.0935398667707025  0.9728493201346677  0.6735117443645527
  0.9728493201346666  0.7993375757701107  0.8793104533639499
  0.4064601332292958  0.0799728775938401  0.8793104533639571
  0.5271506798653371  0.6206895466360580  0.7006624242298934
  0.6206895466360367  0.7006624242298810  0.5271506798653222
  0.8264882556354467  0.7993375757701164  0.4200271224061636
  0.9728493201346685  0.6735117443645601  0.0935398667707160
  0.8793104533639580  0.4064601332292767  0.0799728775938390
  0.4200271224061479  0.8264882556354313  0.7993375757701059
  0.6735117443645589  0.0935398667707260  0.9728493201346752
  0.0799728775938465  0.8793104533639505  0.4064601332292847
  0.4064601332292976  0.8264882556354456  0.5271506798653340
  0.0935398667707042  0.6206895466360464  0.4200271224061562
  0.5935398667707044  0.9200271224061598  0.1206895466360428
  0.6206895466360400  0.4200271224061629  0.0935398667707153
  0.0799728775938502  0.7006624242298923  0.6735117443645643
  0.5271506798653279  0.4064601332292740  0.8264882556354384
  0.7006624242298848  0.5271506798653235  0.6206895466360453
  0.2993375757701114  0.3264882556354370  0.9200271224061586
  0.1735117443645552  0.4728493201346735  0.5935398667707162
  0.5799728775938446  0.9064601332292767  0.3793104533639523
  0.2006624242298904  0.1206895466360551  0.0271506798653317
  0.2006624242298830  0.5799728775938315  0.1735117443645551
  0.1206895466360346  0.0271506798653180  0.2006624242298792
  0.9064601332292975  0.0271506798653322  0.3264882556354475
  0.0271506798653334  0.2006624242298896  0.1206895466360501
  0.2993375757701153  0.4728493201346762  0.3793104533639547
  0.4728493201346721  0.5935398667707259  0.1735117443645618
  0.9200271224061499  0.2993375757701077  0.3264882556354357
  0.3264882556354505  0.9200271224061717  0.2993375757701200
  0.3793104533639597  0.5799728775938370  0.9064601332292846
  0.9064601332292956  0.3793104533639534  0.5799728775938441
  0.5935398667707025  0.1735117443645544  0.4728493201346660
  0.9200271224061536  0.1206895466360494  0.5935398667707154
  0.3264882556354411  0.9064601332292741  0.0271506798653248
  0.5799728775938521  0.1735117443645686  0.2006624242298941
  0.1206895466360421  0.5935398667707236  0.9200271224061610
  0.0271506798653315  0.3264882556354401  0.9064601332292839
  0.1735117443645532  0.2006624242298837  0.5799728775938365
  0.3793104533639634  0.2993375757701190  0.4728493201346777
  0.4728493201346629  0.3793104533639419  0.2993375757701067
  0.6735117443645496  0.0799728775938286  0.7006624242298798
 
  0.00000000E+00  0.00000000E+00  0.00000000E+00
  0.00000000E+00  0.00000000E+00  0.00000000E+00
  0.00000000E+00  0.00000000E+00  0.00000000E+00
  0.00000000E+00  0.00000000E+00  0.00000000E+00
  0.00000000E+00  0.00000000E+00  0.00000000E+00
  0.00000000E+00  0.00000000E+00  0.00000000E+00
  0.00000000E+00  0.00000000E+00  0.00000000E+00
  0.00000000E+00  0.00000000E+00  0.00000000E+00
  0.00000000E+00  0.00000000E+00  0.00000000E+00
  0.00000000E+00  0.00000000E+00  0.00000000E+00
  0.00000000E+00  0.00000000E+00  0.00000000E+00
  0.00000000E+00  0.00000000E+00  0.00000000E+00
  0.00000000E+00  0.00000000E+00  0.00000000E+00
  0.00000000E+00  0.00000000E+00  0.00000000E+00
  0.00000000E+00  0.00000000E+00  0.00000000E+00
  0.00000000E+00  0.00000000E+00  0.00000000E+00
  0.00000000E+00  0.00000000E+00  0.00000000E+00
  0.00000000E+00  0.00000000E+00  0.00000000E+00
  0.00000000E+00  0.00000000E+00  0.00000000E+00
  0.00000000E+00  0.00000000E+00  0.00000000E+00
  0.00000000E+00  0.00000000E+00  0.00000000E+00
  0.00000000E+00  0.00000000E+00  0.00000000E+00
  0.00000000E+00  0.00000000E+00  0.00000000E+00
  0.00000000E+00  0.00000000E+00  0.00000000E+00
  0.00000000E+00  0.00000000E+00  0.00000000E+00
  0.00000000E+00  0.00000000E+00  0.00000000E+00
  0.00000000E+00  0.00000000E+00  0.00000000E+00
  0.00000000E+00  0.00000000E+00  0.00000000E+00
  0.00000000E+00  0.00000000E+00  0.00000000E+00
  0.00000000E+00  0.00000000E+00  0.00000000E+00
  0.00000000E+00  0.00000000E+00  0.00000000E+00
  0.00000000E+00  0.00000000E+00  0.00000000E+00
  0.00000000E+00  0.00000000E+00  0.00000000E+00
  0.00000000E+00  0.00000000E+00  0.00000000E+00
  0.00000000E+00  0.00000000E+00  0.00000000E+00
  0.00000000E+00  0.00000000E+00  0.00000000E+00
  0.00000000E+00  0.00000000E+00  0.00000000E+00
  0.00000000E+00  0.00000000E+00  0.00000000E+00
  0.00000000E+00  0.00000000E+00  0.00000000E+00
  0.00000000E+00  0.00000000E+00  0.00000000E+00
  0.00000000E+00  0.00000000E+00  0.00000000E+00
  0.00000000E+00  0.00000000E+00  0.00000000E+00
  0.00000000E+00  0.00000000E+00  0.00000000E+00
  0.00000000E+00  0.00000000E+00  0.00000000E+00
  0.00000000E+00  0.00000000E+00  0.00000000E+00
  0.00000000E+00  0.00000000E+00  0.00000000E+00
  0.00000000E+00  0.00000000E+00  0.00000000E+00
  0.00000000E+00  0.00000000E+00  0.00000000E+00
  0.00000000E+00  0.00000000E+00  0.00000000E+00
  0.00000000E+00  0.00000000E+00  0.00000000E+00
  0.00000000E+00  0.00000000E+00  0.00000000E+00
  0.00000000E+00  0.00000000E+00  0.00000000E+00
  0.00000000E+00  0.00000000E+00  0.00000000E+00
  0.00000000E+00  0.00000000E+00  0.00000000E+00
  0.00000000E+00  0.00000000E+00  0.00000000E+00
  0.00000000E+00  0.00000000E+00  0.00000000E+00
  0.00000000E+00  0.00000000E+00  0.00000000E+00
  0.00000000E+00  0.00000000E+00  0.00000000E+00
  0.00000000E+00  0.00000000E+00  0.00000000E+00
  0.00000000E+00  0.00000000E+00  0.00000000E+00
  0.00000000E+00  0.00000000E+00  0.00000000E+00
  0.00000000E+00  0.00000000E+00  0.00000000E+00
  0.00000000E+00  0.00000000E+00  0.00000000E+00
  0.00000000E+00  0.00000000E+00  0.00000000E+00
  0.00000000E+00  0.00000000E+00  0.00000000E+00
  0.00000000E+00  0.00000000E+00  0.00000000E+00
  0.00000000E+00  0.00000000E+00  0.00000000E+00
  0.00000000E+00  0.00000000E+00  0.00000000E+00
  0.00000000E+00  0.00000000E+00  0.00000000E+00
  0.00000000E+00  0.00000000E+00  0.00000000E+00
  0.00000000E+00  0.00000000E+00  0.00000000E+00
  0.00000000E+00  0.00000000E+00  0.00000000E+00
  0.00000000E+00  0.00000000E+00  0.00000000E+00
  0.00000000E+00  0.00000000E+00  0.00000000E+00
  0.00000000E+00  0.00000000E+00  0.00000000E+00
  0.00000000E+00  0.00000000E+00  0.00000000E+00
  0.00000000E+00  0.00000000E+00  0.00000000E+00
  0.00000000E+00  0.00000000E+00  0.00000000E+00
  0.00000000E+00  0.00000000E+00  0.00000000E+00
  0.00000000E+00  0.00000000E+00  0.00000000E+00
