ALGO = Fast
EDIFF = 1e-07
EDIFFG = -0.001
ENCUT = 520
IBRION = 2
ICHARG = 1
ISIF = 3
ISMEAR = 0
ISPIN = 2
LCHARG = False
LORBIT = 11
LREAL = Auto
LWAVE = False
MAGMOM = 80*0.6
NELM = 100
NELMIN = 5
NSW = 500
PREC = Accurate
SIGMA = 0.05
