pymatgen 4.7.6+ generated KPOINTS with grid density = 1091.00359632 / atom
0
Monkhorst
2 2 2
